p edge 124 385
e 1 2
e 1 6
e 1 7
e 1 9
e 1 29
e 1 42
e 1 43
e 1 50
e 1 55
e 1 105
e 1 108
e 2 5
e 2 6
e 2 9
e 2 11
e 2 15
e 2 21
e 2 22
e 2 25
e 2 33
e 2 42
e 2 43
e 2 50
e 2 55
e 3 12
e 3 16
e 3 17
e 3 24
e 3 27
e 3 52
e 3 57
e 3 59
e 3 60
e 3 66
e 3 71
e 3 82
e 3 86
e 3 100
e 4 8
e 4 9
e 4 14
e 4 23
e 4 26
e 4 37
e 4 46
e 4 49
e 4 51
e 4 107
e 5 14
e 5 15
e 5 22
e 5 23
e 5 33
e 5 40
e 5 47
e 5 50
e 5 87
e 5 109
e 5 112
e 6 8
e 6 9
e 6 14
e 6 21
e 6 23
e 6 35
e 6 42
e 6 50
e 6 58
e 6 63
e 6 69
e 6 122
e 7 17
e 7 25
e 7 29
e 7 31
e 7 44
e 7 76
e 7 90
e 8 9
e 8 10
e 8 21
e 8 23
e 8 26
e 8 35
e 8 42
e 8 43
e 8 46
e 8 54
e 8 69
e 9 21
e 9 23
e 9 26
e 9 43
e 9 46
e 9 50
e 9 55
e 9 63
e 9 76
e 9 107
e 10 31
e 10 36
e 10 39
e 10 43
e 10 56
e 10 57
e 10 70
e 10 78
e 11 15
e 11 20
e 11 23
e 11 30
e 11 32
e 11 37
e 11 40
e 11 51
e 11 52
e 11 55
e 11 59
e 11 92
e 12 16
e 12 18
e 12 24
e 12 42
e 12 57
e 12 59
e 12 60
e 12 82
e 12 100
e 13 25
e 13 29
e 13 53
e 13 73
e 13 80
e 14 19
e 14 21
e 14 23
e 14 26
e 14 33
e 14 36
e 14 38
e 14 50
e 15 18
e 15 20
e 15 30
e 15 32
e 15 33
e 15 47
e 15 52
e 15 53
e 15 59
e 15 92
e 16 17
e 16 34
e 16 37
e 16 44
e 16 48
e 16 57
e 16 74
e 16 76
e 16 77
e 17 22
e 17 25
e 17 31
e 17 44
e 17 76
e 17 90
e 18 28
e 18 42
e 18 53
e 18 62
e 18 65
e 19 20
e 19 21
e 19 26
e 19 33
e 19 36
e 19 38
e 19 41
e 19 46
e 19 50
e 19 67
e 19 97
e 19 119
e 20 30
e 20 32
e 20 36
e 20 46
e 20 52
e 20 59
e 20 92
e 21 23
e 21 26
e 21 50
e 21 82
e 22 25
e 22 28
e 22 49
e 22 54
e 22 62
e 22 79
e 22 87
e 22 111
e 23 40
e 23 50
e 23 63
e 24 60
e 24 75
e 24 88
e 24 91
e 24 94
e 25 34
e 25 35
e 25 37
e 25 44
e 25 48
e 25 77
e 25 90
e 26 43
e 26 46
e 26 50
e 27 30
e 27 66
e 27 71
e 27 89
e 28 49
e 28 53
e 28 54
e 28 62
e 28 65
e 28 79
e 28 80
e 28 111
e 29 84
e 30 32
e 30 52
e 30 89
e 30 92
e 30 114
e 31 39
e 31 44
e 31 56
e 31 57
e 31 70
e 31 78
e 32 52
e 32 92
e 32 114
e 33 36
e 33 38
e 33 47
e 33 65
e 33 104
e 34 35
e 34 37
e 34 44
e 34 48
e 34 77
e 34 106
e 34 117
e 34 118
e 35 37
e 35 44
e 35 48
e 35 69
e 35 77
e 36 38
e 37 44
e 37 48
e 37 49
e 37 51
e 37 55
e 37 74
e 37 77
e 38 41
e 38 61
e 38 63
e 38 67
e 38 97
e 38 119
e 39 56
e 39 57
e 39 58
e 39 70
e 39 85
e 39 96
e 40 50
e 40 109
e 40 112
e 41 66
e 41 67
e 41 86
e 41 97
e 41 101
e 41 119
e 42 50
e 43 55
e 44 48
e 44 74
e 44 77
e 45 72
e 45 90
e 45 93
e 46 107
e 47 49
e 47 87
e 47 93
e 48 74
e 48 76
e 48 77
e 48 115
e 48 116
e 49 51
e 49 62
e 49 79
e 49 80
e 49 87
e 50 63
e 51 55
e 52 66
e 52 86
e 52 92
e 53 62
e 53 65
e 53 80
e 54 79
e 54 111
e 56 57
e 56 70
e 56 78
e 56 96
e 57 70
e 57 78
e 58 70
e 59 88
e 59 91
e 59 92
e 59 100
e 60 75
e 60 82
e 61 63
e 61 84
e 61 113
e 62 65
e 62 79
e 62 80
e 63 121
e 64 68
e 64 81
e 64 120
e 65 68
e 65 81
e 65 104
e 66 71
e 66 86
e 67 86
e 67 97
e 67 101
e 67 119
e 68 81
e 68 89
e 69 83
e 69 102
e 69 110
e 70 78
e 71 92
e 74 115
e 74 116
e 75 88
e 75 91
e 75 98
e 77 85
e 78 96
e 79 111
e 83 103
e 83 110
e 86 97
e 88 91
e 88 100
e 94 95
e 94 99
e 95 99
e 97 119
e 115 116
e 117 118
e 123 124
